p edge 127 4707
e 1 3
e 1 4
e 1 6
e 1 9
e 1 11
e 1 12
e 1 13
e 1 16
e 1 18
e 1 19
e 1 22
e 1 24
e 1 25
e 1 26
e 1 27
e 1 28
e 1 29
e 1 33
e 1 34
e 1 36
e 1 41
e 1 42
e 1 43
e 1 44
e 1 46
e 1 47
e 1 51
e 1 52
e 1 53
e 1 55
e 1 56
e 1 58
e 1 59
e 1 60
e 1 62
e 1 63
e 1 66
e 1 67
e 1 69
e 1 70
e 1 73
e 1 74
e 1 75
e 1 76
e 1 77
e 1 78
e 1 79
e 1 80
e 1 85
e 1 86
e 1 87
e 1 91
e 1 92
e 1 93
e 1 94
e 1 95
e 1 96
e 1 97
e 1 99
e 1 102
e 1 104
e 1 106
e 1 107
e 1 109
e 1 112
e 1 115
e 1 117
e 1 119
e 1 121
e 1 123
e 1 124
e 1 125
e 1 126
e 2 3
e 2 4
e 2 5
e 2 6
e 2 9
e 2 11
e 2 13
e 2 15
e 2 16
e 2 18
e 2 19
e 2 20
e 2 22
e 2 24
e 2 25
e 2 26
e 2 27
e 2 28
e 2 29
e 2 31
e 2 37
e 2 38
e 2 43
e 2 44
e 2 46
e 2 48
e 2 49
e 2 50
e 2 51
e 2 52
e 2 54
e 2 55
e 2 56
e 2 57
e 2 59
e 2 60
e 2 61
e 2 62
e 2 63
e 2 66
e 2 67
e 2 69
e 2 70
e 2 71
e 2 72
e 2 73
e 2 74
e 2 75
e 2 76
e 2 78
e 2 82
e 2 83
e 2 84
e 2 86
e 2 87
e 2 89
e 2 90
e 2 92
e 2 93
e 2 94
e 2 96
e 2 97
e 2 98
e 2 99
e 2 100
e 2 102
e 2 103
e 2 104
e 2 105
e 2 106
e 2 107
e 2 109
e 2 113
e 2 114
e 2 116
e 2 118
e 2 119
e 2 121
e 2 125
e 3 5
e 3 7
e 3 8
e 3 9
e 3 10
e 3 14
e 3 17
e 3 18
e 3 19
e 3 20
e 3 22
e 3 23
e 3 25
e 3 26
e 3 27
e 3 28
e 3 30
e 3 33
e 3 34
e 3 35
e 3 36
e 3 38
e 3 39
e 3 40
e 3 41
e 3 42
e 3 45
e 3 46
e 3 50
e 3 51
e 3 52
e 3 53
e 3 54
e 3 55
e 3 56
e 3 60
e 3 61
e 3 63
e 3 64
e 3 65
e 3 67
e 3 69
e 3 70
e 3 71
e 3 72
e 3 74
e 3 75
e 3 76
e 3 77
e 3 78
e 3 79
e 3 80
e 3 81
e 3 84
e 3 85
e 3 86
e 3 87
e 3 88
e 3 89
e 3 91
e 3 92
e 3 95
e 3 98
e 3 100
e 3 104
e 3 105
e 3 106
e 3 110
e 3 111
e 3 112
e 3 116
e 3 117
e 3 118
e 3 119
e 3 120
e 3 121
e 3 122
e 3 123
e 3 126
e 3 127
e 4 5
e 4 6
e 4 9
e 4 12
e 4 13
e 4 15
e 4 16
e 4 18
e 4 19
e 4 21
e 4 22
e 4 23
e 4 24
e 4 25
e 4 30
e 4 31
e 4 32
e 4 33
e 4 34
e 4 35
e 4 36
e 4 39
e 4 40
e 4 41
e 4 42
e 4 43
e 4 44
e 4 45
e 4 48
e 4 49
e 4 52
e 4 53
e 4 54
e 4 56
e 4 57
e 4 58
e 4 59
e 4 61
e 4 63
e 4 64
e 4 65
e 4 68
e 4 69
e 4 70
e 4 72
e 4 74
e 4 78
e 4 79
e 4 80
e 4 81
e 4 83
e 4 86
e 4 88
e 4 90
e 4 92
e 4 95
e 4 96
e 4 97
e 4 99
e 4 100
e 4 101
e 4 102
e 4 103
e 4 105
e 4 108
e 4 109
e 4 110
e 4 113
e 4 114
e 4 116
e 4 119
e 4 120
e 4 125
e 4 126
e 4 127
e 5 6
e 5 7
e 5 14
e 5 15
e 5 18
e 5 19
e 5 24
e 5 25
e 5 27
e 5 28
e 5 30
e 5 31
e 5 33
e 5 34
e 5 35
e 5 36
e 5 37
e 5 38
e 5 39
e 5 41
e 5 42
e 5 43
e 5 45
e 5 46
e 5 47
e 5 49
e 5 50
e 5 52
e 5 53
e 5 54
e 5 55
e 5 56
e 5 58
e 5 59
e 5 60
e 5 64
e 5 68
e 5 70
e 5 73
e 5 74
e 5 75
e 5 76
e 5 77
e 5 79
e 5 80
e 5 82
e 5 88
e 5 89
e 5 90
e 5 93
e 5 94
e 5 96
e 5 99
e 5 100
e 5 101
e 5 102
e 5 105
e 5 107
e 5 111
e 5 114
e 5 115
e 5 117
e 5 118
e 5 120
e 5 122
e 5 123
e 5 125
e 5 126
e 5 127
e 6 7
e 6 8
e 6 13
e 6 14
e 6 15
e 6 16
e 6 17
e 6 18
e 6 19
e 6 20
e 6 22
e 6 23
e 6 24
e 6 25
e 6 27
e 6 28
e 6 29
e 6 30
e 6 32
e 6 33
e 6 34
e 6 35
e 6 36
e 6 38
e 6 40
e 6 41
e 6 42
e 6 44
e 6 49
e 6 50
e 6 51
e 6 53
e 6 56
e 6 57
e 6 58
e 6 59
e 6 60
e 6 63
e 6 64
e 6 65
e 6 68
e 6 69
e 6 70
e 6 71
e 6 74
e 6 76
e 6 77
e 6 78
e 6 83
e 6 84
e 6 85
e 6 87
e 6 88
e 6 89
e 6 90
e 6 93
e 6 96
e 6 97
e 6 100
e 6 103
e 6 104
e 6 106
e 6 108
e 6 110
e 6 112
e 6 113
e 6 116
e 6 118
e 6 119
e 6 120
e 6 121
e 6 123
e 6 127
e 7 9
e 7 10
e 7 11
e 7 13
e 7 14
e 7 16
e 7 19
e 7 20
e 7 24
e 7 25
e 7 27
e 7 29
e 7 30
e 7 31
e 7 33
e 7 35
e 7 36
e 7 37
e 7 38
e 7 40
e 7 44
e 7 47
e 7 48
e 7 49
e 7 51
e 7 58
e 7 59
e 7 60
e 7 61
e 7 63
e 7 64
e 7 65
e 7 67
e 7 70
e 7 71
e 7 72
e 7 77
e 7 78
e 7 79
e 7 83
e 7 84
e 7 85
e 7 86
e 7 87
e 7 88
e 7 90
e 7 91
e 7 92
e 7 93
e 7 94
e 7 95
e 7 96
e 7 98
e 7 99
e 7 100
e 7 101
e 7 103
e 7 107
e 7 110
e 7 113
e 7 115
e 7 116
e 7 117
e 7 118
e 7 123
e 7 124
e 7 126
e 8 9
e 8 10
e 8 12
e 8 16
e 8 20
e 8 21
e 8 24
e 8 25
e 8 26
e 8 28
e 8 29
e 8 31
e 8 32
e 8 34
e 8 35
e 8 37
e 8 40
e 8 41
e 8 42
e 8 46
e 8 48
e 8 49
e 8 50
e 8 52
e 8 53
e 8 55
e 8 56
e 8 58
e 8 60
e 8 61
e 8 63
e 8 64
e 8 65
e 8 66
e 8 68
e 8 70
e 8 73
e 8 74
e 8 75
e 8 77
e 8 78
e 8 79
e 8 80
e 8 81
e 8 86
e 8 87
e 8 88
e 8 91
e 8 92
e 8 95
e 8 96
e 8 97
e 8 98
e 8 99
e 8 100
e 8 104
e 8 106
e 8 107
e 8 109
e 8 110
e 8 112
e 8 114
e 8 117
e 8 119
e 8 120
e 8 121
e 8 126
e 9 10
e 9 11
e 9 13
e 9 14
e 9 15
e 9 17
e 9 20
e 9 21
e 9 22
e 9 23
e 9 25
e 9 26
e 9 27
e 9 29
e 9 30
e 9 32
e 9 33
e 9 34
e 9 36
e 9 37
e 9 39
e 9 40
e 9 41
e 9 42
e 9 43
e 9 44
e 9 47
e 9 48
e 9 49
e 9 50
e 9 51
e 9 53
e 9 54
e 9 55
e 9 57
e 9 60
e 9 61
e 9 62
e 9 63
e 9 67
e 9 68
e 9 72
e 9 74
e 9 75
e 9 76
e 9 77
e 9 78
e 9 79
e 9 80
e 9 81
e 9 83
e 9 84
e 9 85
e 9 86
e 9 88
e 9 89
e 9 91
e 9 99
e 9 102
e 9 103
e 9 104
e 9 105
e 9 107
e 9 109
e 9 110
e 9 111
e 9 113
e 9 115
e 9 116
e 9 118
e 9 119
e 9 123
e 9 124
e 9 125
e 9 126
e 10 14
e 10 17
e 10 18
e 10 21
e 10 24
e 10 25
e 10 30
e 10 34
e 10 35
e 10 38
e 10 41
e 10 42
e 10 43
e 10 44
e 10 45
e 10 46
e 10 47
e 10 48
e 10 49
e 10 51
e 10 52
e 10 53
e 10 54
e 10 56
e 10 59
e 10 60
e 10 61
e 10 63
e 10 64
e 10 66
e 10 67
e 10 68
e 10 69
e 10 72
e 10 73
e 10 74
e 10 75
e 10 76
e 10 77
e 10 79
e 10 80
e 10 81
e 10 84
e 10 86
e 10 87
e 10 88
e 10 91
e 10 94
e 10 97
e 10 99
e 10 100
e 10 103
e 10 104
e 10 105
e 10 106
e 10 109
e 10 110
e 10 111
e 10 115
e 10 116
e 10 117
e 10 118
e 10 119
e 10 120
e 10 124
e 11 13
e 11 14
e 11 15
e 11 17
e 11 18
e 11 19
e 11 21
e 11 22
e 11 24
e 11 25
e 11 26
e 11 27
e 11 28
e 11 29
e 11 30
e 11 31
e 11 32
e 11 34
e 11 35
e 11 36
e 11 37
e 11 38
e 11 39
e 11 40
e 11 41
e 11 42
e 11 43
e 11 45
e 11 49
e 11 50
e 11 53
e 11 54
e 11 55
e 11 56
e 11 58
e 11 60
e 11 61
e 11 62
e 11 63
e 11 64
e 11 66
e 11 67
e 11 69
e 11 70
e 11 71
e 11 73
e 11 74
e 11 75
e 11 76
e 11 78
e 11 80
e 11 82
e 11 84
e 11 85
e 11 88
e 11 89
e 11 90
e 11 92
e 11 93
e 11 94
e 11 96
e 11 98
e 11 100
e 11 102
e 11 105
e 11 106
e 11 107
e 11 109
e 11 110
e 11 111
e 11 112
e 11 115
e 11 116
e 11 118
e 11 119
e 11 121
e 11 122
e 11 124
e 11 125
e 11 126
e 12 15
e 12 18
e 12 19
e 12 20
e 12 24
e 12 26
e 12 28
e 12 30
e 12 31
e 12 32
e 12 34
e 12 35
e 12 36
e 12 37
e 12 38
e 12 39
e 12 41
e 12 43
e 12 45
e 12 46
e 12 48
e 12 50
e 12 51
e 12 52
e 12 53
e 12 54
e 12 56
e 12 59
e 12 61
e 12 64
e 12 65
e 12 66
e 12 67
e 12 69
e 12 70
e 12 71
e 12 72
e 12 73
e 12 74
e 12 76
e 12 77
e 12 78
e 12 79
e 12 80
e 12 81
e 12 87
e 12 88
e 12 89
e 12 90
e 12 92
e 12 94
e 12 95
e 12 99
e 12 100
e 12 102
e 12 105
e 12 108
e 12 109
e 12 111
e 12 112
e 12 115
e 12 116
e 12 117
e 12 120
e 12 121
e 12 125
e 12 127
e 13 14
e 13 15
e 13 16
e 13 18
e 13 20
e 13 22
e 13 23
e 13 24
e 13 25
e 13 26
e 13 28
e 13 32
e 13 36
e 13 37
e 13 39
e 13 40
e 13 41
e 13 43
e 13 44
e 13 45
e 13 46
e 13 47
e 13 49
e 13 50
e 13 57
e 13 58
e 13 59
e 13 63
e 13 64
e 13 65
e 13 67
e 13 68
e 13 71
e 13 72
e 13 76
e 13 79
e 13 81
e 13 83
e 13 87
e 13 88
e 13 93
e 13 96
e 13 97
e 13 98
e 13 100
e 13 101
e 13 102
e 13 103
e 13 106
e 13 108
e 13 109
e 13 110
e 13 111
e 13 115
e 13 116
e 13 117
e 13 118
e 13 119
e 13 121
e 13 122
e 13 123
e 13 124
e 13 125
e 13 126
e 14 17
e 14 18
e 14 19
e 14 20
e 14 21
e 14 24
e 14 25
e 14 26
e 14 32
e 14 33
e 14 34
e 14 35
e 14 37
e 14 38
e 14 39
e 14 40
e 14 42
e 14 43
e 14 45
e 14 46
e 14 47
e 14 50
e 14 51
e 14 53
e 14 55
e 14 57
e 14 61
e 14 62
e 14 63
e 14 64
e 14 65
e 14 67
e 14 69
e 14 70
e 14 72
e 14 73
e 14 74
e 14 75
e 14 77
e 14 78
e 14 82
e 14 85
e 14 86
e 14 87
e 14 88
e 14 93
e 14 96
e 14 98
e 14 99
e 14 100
e 14 103
e 14 105
e 14 106
e 14 107
e 14 109
e 14 112
e 14 113
e 14 115
e 14 116
e 14 117
e 14 119
e 14 120
e 14 121
e 14 122
e 14 123
e 14 124
e 14 126
e 15 16
e 15 19
e 15 22
e 15 23
e 15 26
e 15 27
e 15 28
e 15 30
e 15 31
e 15 32
e 15 37
e 15 38
e 15 39
e 15 40
e 15 42
e 15 44
e 15 45
e 15 46
e 15 47
e 15 49
e 15 50
e 15 51
e 15 53
e 15 54
e 15 57
e 15 58
e 15 59
e 15 62
e 15 65
e 15 66
e 15 67
e 15 68
e 15 70
e 15 75
e 15 77
e 15 78
e 15 79
e 15 80
e 15 81
e 15 85
e 15 86
e 15 87
e 15 88
e 15 91
e 15 92
e 15 94
e 15 95
e 15 96
e 15 97
e 15 101
e 15 102
e 15 103
e 15 104
e 15 107
e 15 108
e 15 109
e 15 110
e 15 111
e 15 115
e 15 116
e 15 117
e 15 118
e 15 119
e 15 120
e 15 121
e 15 124
e 15 126
e 15 127
e 16 21
e 16 22
e 16 25
e 16 26
e 16 27
e 16 31
e 16 32
e 16 35
e 16 36
e 16 37
e 16 38
e 16 39
e 16 40
e 16 41
e 16 43
e 16 45
e 16 47
e 16 48
e 16 50
e 16 51
e 16 52
e 16 53
e 16 54
e 16 55
e 16 56
e 16 58
e 16 62
e 16 63
e 16 66
e 16 67
e 16 73
e 16 75
e 16 76
e 16 77
e 16 78
e 16 80
e 16 81
e 16 82
e 16 84
e 16 86
e 16 87
e 16 91
e 16 94
e 16 95
e 16 96
e 16 99
e 16 101
e 16 102
e 16 103
e 16 105
e 16 107
e 16 109
e 16 110
e 16 111
e 16 112
e 16 113
e 16 114
e 16 115
e 16 116
e 16 117
e 16 118
e 16 119
e 16 120
e 16 121
e 16 123
e 16 124
e 16 125
e 16 127
e 17 18
e 17 20
e 17 22
e 17 24
e 17 26
e 17 27
e 17 28
e 17 31
e 17 33
e 17 34
e 17 35
e 17 36
e 17 42
e 17 43
e 17 44
e 17 46
e 17 50
e 17 51
e 17 53
e 17 55
e 17 56
e 17 58
e 17 59
e 17 60
e 17 62
e 17 63
e 17 64
e 17 65
e 17 66
e 17 68
e 17 72
e 17 73
e 17 75
e 17 76
e 17 78
e 17 79
e 17 80
e 17 81
e 17 84
e 17 86
e 17 89
e 17 92
e 17 94
e 17 95
e 17 96
e 17 98
e 17 100
e 17 101
e 17 104
e 17 105
e 17 107
e 17 109
e 17 110
e 17 112
e 17 113
e 17 115
e 17 116
e 17 117
e 17 118
e 17 119
e 17 121
e 17 123
e 17 124
e 17 127
e 18 20
e 18 21
e 18 22
e 18 25
e 18 26
e 18 29
e 18 31
e 18 32
e 18 36
e 18 37
e 18 38
e 18 39
e 18 41
e 18 42
e 18 43
e 18 44
e 18 45
e 18 46
e 18 47
e 18 50
e 18 52
e 18 53
e 18 54
e 18 55
e 18 56
e 18 57
e 18 58
e 18 60
e 18 61
e 18 63
e 18 65
e 18 66
e 18 69
e 18 74
e 18 75
e 18 76
e 18 77
e 18 78
e 18 80
e 18 81
e 18 83
e 18 84
e 18 89
e 18 90
e 18 91
e 18 92
e 18 93
e 18 94
e 18 96
e 18 98
e 18 99
e 18 100
e 18 101
e 18 102
e 18 103
e 18 105
e 18 106
e 18 107
e 18 108
e 18 109
e 18 111
e 18 112
e 18 115
e 18 116
e 18 117
e 18 120
e 18 122
e 18 125
e 18 126
e 19 25
e 19 26
e 19 27
e 19 28
e 19 31
e 19 36
e 19 38
e 19 40
e 19 41
e 19 42
e 19 44
e 19 45
e 19 46
e 19 47
e 19 48
e 19 49
e 19 50
e 19 52
e 19 53
e 19 54
e 19 55
e 19 56
e 19 57
e 19 61
e 19 62
e 19 63
e 19 64
e 19 65
e 19 68
e 19 70
e 19 72
e 19 76
e 19 77
e 19 78
e 19 79
e 19 80
e 19 81
e 19 82
e 19 83
e 19 86
e 19 87
e 19 88
e 19 89
e 19 90
e 19 91
e 19 92
e 19 93
e 19 94
e 19 96
e 19 97
e 19 99
e 19 101
e 19 102
e 19 103
e 19 104
e 19 105
e 19 106
e 19 107
e 19 109
e 19 111
e 19 112
e 19 113
e 19 115
e 19 116
e 19 119
e 19 120
e 19 121
e 19 123
e 19 125
e 19 126
e 20 21
e 20 23
e 20 25
e 20 27
e 20 28
e 20 30
e 20 31
e 20 32
e 20 33
e 20 37
e 20 40
e 20 43
e 20 44
e 20 46
e 20 48
e 20 51
e 20 52
e 20 53
e 20 54
e 20 55
e 20 61
e 20 62
e 20 64
e 20 66
e 20 67
e 20 68
e 20 69
e 20 70
e 20 72
e 20 77
e 20 78
e 20 79
e 20 80
e 20 81
e 20 82
e 20 83
e 20 84
e 20 86
e 20 87
e 20 88
e 20 94
e 20 95
e 20 96
e 20 98
e 20 103
e 20 108
e 20 109
e 20 110
e 20 115
e 20 116
e 20 117
e 20 119
e 20 120
e 20 121
e 20 122
e 20 123
e 20 124
e 21 23
e 21 26
e 21 27
e 21 28
e 21 29
e 21 31
e 21 32
e 21 33
e 21 35
e 21 36
e 21 38
e 21 40
e 21 44
e 21 45
e 21 46
e 21 48
e 21 53
e 21 54
e 21 55
e 21 58
e 21 64
e 21 65
e 21 68
e 21 70
e 21 72
e 21 74
e 21 75
e 21 76
e 21 77
e 21 79
e 21 80
e 21 81
e 21 82
e 21 83
e 21 84
e 21 85
e 21 86
e 21 87
e 21 88
e 21 89
e 21 93
e 21 94
e 21 96
e 21 97
e 21 99
e 21 100
e 21 101
e 21 102
e 21 103
e 21 105
e 21 106
e 21 107
e 21 108
e 21 111
e 21 112
e 21 113
e 21 114
e 21 117
e 21 118
e 21 120
e 21 121
e 21 122
e 21 123
e 21 124
e 22 23
e 22 24
e 22 25
e 22 28
e 22 30
e 22 31
e 22 32
e 22 36
e 22 43
e 22 44
e 22 47
e 22 49
e 22 52
e 22 54
e 22 61
e 22 62
e 22 63
e 22 64
e 22 65
e 22 66
e 22 67
e 22 70
e 22 72
e 22 73
e 22 74
e 22 75
e 22 79
e 22 81
e 22 83
e 22 84
e 22 85
e 22 86
e 22 87
e 22 88
e 22 89
e 22 90
e 22 91
e 22 94
e 22 95
e 22 96
e 22 98
e 22 100
e 22 101
e 22 104
e 22 107
e 22 109
e 22 112
e 22 115
e 22 116
e 22 117
e 22 118
e 22 119
e 22 121
e 22 124
e 22 125
e 22 126
e 22 127
e 23 24
e 23 26
e 23 28
e 23 30
e 23 31
e 23 32
e 23 33
e 23 34
e 23 40
e 23 42
e 23 43
e 23 47
e 23 49
e 23 50
e 23 52
e 23 53
e 23 57
e 23 58
e 23 59
e 23 60
e 23 67
e 23 69
e 23 72
e 23 73
e 23 74
e 23 75
e 23 76
e 23 77
e 23 78
e 23 80
e 23 81
e 23 85
e 23 86
e 23 87
e 23 89
e 23 91
e 23 93
e 23 94
e 23 95
e 23 98
e 23 100
e 23 102
e 23 103
e 23 104
e 23 106
e 23 107
e 23 109
e 23 110
e 23 111
e 23 113
e 23 115
e 23 117
e 23 118
e 23 120
e 23 121
e 23 125
e 23 127
e 24 25
e 24 26
e 24 28
e 24 29
e 24 32
e 24 33
e 24 36
e 24 37
e 24 40
e 24 41
e 24 44
e 24 45
e 24 46
e 24 47
e 24 48
e 24 49
e 24 50
e 24 52
e 24 53
e 24 58
e 24 59
e 24 60
e 24 61
e 24 63
e 24 65
e 24 67
e 24 68
e 24 69
e 24 70
e 24 73
e 24 75
e 24 76
e 24 77
e 24 78
e 24 79
e 24 80
e 24 82
e 24 84
e 24 90
e 24 91
e 24 92
e 24 96
e 24 97
e 24 99
e 24 101
e 24 102
e 24 103
e 24 105
e 24 106
e 24 107
e 24 112
e 24 114
e 24 115
e 24 116
e 24 117
e 24 118
e 24 120
e 24 122
e 24 123
e 24 127
e 25 27
e 25 29
e 25 31
e 25 33
e 25 34
e 25 35
e 25 37
e 25 38
e 25 39
e 25 41
e 25 42
e 25 45
e 25 48
e 25 49
e 25 50
e 25 51
e 25 54
e 25 55
e 25 57
e 25 58
e 25 59
e 25 60
e 25 61
e 25 70
e 25 73
e 25 74
e 25 75
e 25 76
e 25 77
e 25 81
e 25 82
e 25 83
e 25 84
e 25 85
e 25 89
e 25 91
e 25 92
e 25 95
e 25 99
e 25 100
e 25 104
e 25 105
e 25 106
e 25 109
e 25 110
e 25 111
e 25 112
e 25 115
e 25 116
e 25 117
e 25 118
e 25 119
e 25 120
e 25 123
e 25 125
e 25 126
e 25 127
e 26 27
e 26 28
e 26 29
e 26 30
e 26 31
e 26 33
e 26 34
e 26 35
e 26 36
e 26 38
e 26 39
e 26 40
e 26 41
e 26 44
e 26 46
e 26 48
e 26 49
e 26 50
e 26 52
e 26 54
e 26 57
e 26 58
e 26 59
e 26 60
e 26 61
e 26 62
e 26 63
e 26 65
e 26 66
e 26 68
e 26 69
e 26 70
e 26 71
e 26 74
e 26 75
e 26 76
e 26 77
e 26 79
e 26 82
e 26 83
e 26 87
e 26 88
e 26 90
e 26 91
e 26 93
e 26 94
e 26 95
e 26 96
e 26 97
e 26 98
e 26 101
e 26 106
e 26 107
e 26 108
e 26 109
e 26 112
e 26 114
e 26 117
e 26 119
e 26 120
e 26 121
e 26 124
e 26 127
e 27 28
e 27 30
e 27 31
e 27 33
e 27 34
e 27 38
e 27 39
e 27 40
e 27 42
e 27 50
e 27 52
e 27 53
e 27 56
e 27 58
e 27 59
e 27 60
e 27 61
e 27 62
e 27 64
e 27 66
e 27 67
e 27 69
e 27 71
e 27 73
e 27 74
e 27 77
e 27 79
e 27 80
e 27 82
e 27 83
e 27 85
e 27 86
e 27 87
e 27 89
e 27 90
e 27 91
e 27 93
e 27 94
e 27 97
e 27 101
e 27 104
e 27 105
e 27 106
e 27 107
e 27 108
e 27 109
e 27 111
e 27 112
e 27 114
e 27 118
e 27 119
e 27 120
e 27 122
e 27 124
e 27 125
e 27 126
e 27 127
e 28 29
e 28 30
e 28 32
e 28 33
e 28 34
e 28 36
e 28 39
e 28 40
e 28 42
e 28 43
e 28 44
e 28 45
e 28 47
e 28 51
e 28 52
e 28 53
e 28 54
e 28 55
e 28 61
e 28 63
e 28 64
e 28 65
e 28 67
e 28 69
e 28 71
e 28 72
e 28 73
e 28 74
e 28 75
e 28 77
e 28 78
e 28 82
e 28 83
e 28 84
e 28 85
e 28 86
e 28 88
e 28 89
e 28 90
e 28 92
e 28 98
e 28 99
e 28 100
e 28 101
e 28 102
e 28 103
e 28 105
e 28 107
e 28 108
e 28 112
e 28 115
e 28 116
e 28 117
e 28 118
e 28 122
e 28 123
e 28 124
e 28 126
e 29 30
e 29 31
e 29 32
e 29 33
e 29 34
e 29 35
e 29 37
e 29 38
e 29 39
e 29 41
e 29 42
e 29 43
e 29 44
e 29 45
e 29 46
e 29 47
e 29 48
e 29 50
e 29 51
e 29 52
e 29 53
e 29 56
e 29 58
e 29 60
e 29 63
e 29 64
e 29 65
e 29 66
e 29 67
e 29 68
e 29 69
e 29 70
e 29 71
e 29 73
e 29 74
e 29 75
e 29 78
e 29 79
e 29 80
e 29 84
e 29 86
e 29 87
e 29 91
e 29 92
e 29 93
e 29 94
e 29 96
e 29 97
e 29 99
e 29 105
e 29 106
e 29 108
e 29 109
e 29 110
e 29 111
e 29 112
e 29 114
e 29 115
e 29 116
e 29 118
e 29 121
e 29 123
e 29 124
e 29 127
e 30 31
e 30 32
e 30 33
e 30 34
e 30 35
e 30 36
e 30 37
e 30 38
e 30 39
e 30 40
e 30 41
e 30 42
e 30 45
e 30 46
e 30 47
e 30 49
e 30 50
e 30 51
e 30 52
e 30 53
e 30 54
e 30 55
e 30 59
e 30 61
e 30 62
e 30 63
e 30 64
e 30 66
e 30 67
e 30 68
e 30 69
e 30 70
e 30 71
e 30 72
e 30 74
e 30 75
e 30 76
e 30 78
e 30 80
e 30 81
e 30 83
e 30 85
e 30 88
e 30 89
e 30 92
e 30 94
e 30 95
e 30 96
e 30 98
e 30 102
e 30 103
e 30 104
e 30 105
e 30 107
e 30 108
e 30 109
e 30 110
e 30 111
e 30 112
e 30 113
e 30 114
e 30 115
e 30 116
e 30 124
e 30 125
e 30 126
e 30 127
e 31 32
e 31 33
e 31 34
e 31 36
e 31 38
e 31 43
e 31 45
e 31 48
e 31 49
e 31 50
e 31 52
e 31 53
e 31 54
e 31 55
e 31 56
e 31 57
e 31 58
e 31 63
e 31 64
e 31 66
e 31 67
e 31 68
e 31 69
e 31 70
e 31 74
e 31 76
e 31 77
e 31 78
e 31 79
e 31 80
e 31 81
e 31 82
e 31 84
e 31 86
e 31 87
e 31 90
e 31 91
e 31 92
e 31 93
e 31 94
e 31 95
e 31 96
e 31 97
e 31 98
e 31 100
e 31 102
e 31 106
e 31 107
e 31 109
e 31 112
e 31 114
e 31 116
e 31 117
e 31 119
e 31 122
e 31 126
e 31 127
e 32 33
e 32 34
e 32 35
e 32 36
e 32 37
e 32 43
e 32 45
e 32 46
e 32 47
e 32 49
e 32 51
e 32 54
e 32 55
e 32 58
e 32 60
e 32 62
e 32 63
e 32 64
e 32 66
e 32 67
e 32 69
e 32 70
e 32 71
e 32 72
e 32 74
e 32 78
e 32 79
e 32 80
e 32 82
e 32 83
e 32 84
e 32 85
e 32 86
e 32 93
e 32 96
e 32 103
e 32 104
e 32 106
e 32 107
e 32 108
e 32 109
e 32 112
e 32 116
e 32 119
e 32 120
e 32 121
e 32 122
e 32 126
e 33 37
e 33 38
e 33 39
e 33 41
e 33 42
e 33 43
e 33 44
e 33 45
e 33 46
e 33 47
e 33 49
e 33 55
e 33 56
e 33 57
e 33 58
e 33 59
e 33 60
e 33 61
e 33 62
e 33 64
e 33 65
e 33 66
e 33 68
e 33 71
e 33 72
e 33 74
e 33 80
e 33 82
e 33 84
e 33 85
e 33 86
e 33 89
e 33 92
e 33 94
e 33 95
e 33 97
e 33 99
e 33 100
e 33 101
e 33 102
e 33 103
e 33 104
e 33 109
e 33 110
e 33 111
e 33 113
e 33 117
e 33 118
e 33 119
e 33 121
e 33 122
e 33 123
e 33 125
e 33 126
e 34 35
e 34 36
e 34 38
e 34 41
e 34 46
e 34 48
e 34 49
e 34 51
e 34 53
e 34 54
e 34 56
e 34 57
e 34 58
e 34 59
e 34 60
e 34 62
e 34 63
e 34 67
e 34 68
e 34 70
e 34 71
e 34 74
e 34 75
e 34 77
e 34 79
e 34 80
e 34 81
e 34 83
e 34 89
e 34 90
e 34 92
e 34 93
e 34 94
e 34 95
e 34 96
e 34 98
e 34 99
e 34 101
e 34 102
e 34 103
e 34 105
e 34 106
e 34 107
e 34 108
e 34 111
e 34 112
e 34 115
e 34 116
e 34 117
e 34 120
e 34 122
e 34 123
e 34 124
e 34 125
e 34 126
e 34 127
e 35 36
e 35 37
e 35 38
e 35 39
e 35 41
e 35 43
e 35 44
e 35 49
e 35 50
e 35 54
e 35 55
e 35 56
e 35 58
e 35 60
e 35 65
e 35 66
e 35 69
e 35 70
e 35 73
e 35 74
e 35 77
e 35 80
e 35 81
e 35 83
e 35 85
e 35 86
e 35 90
e 35 91
e 35 93
e 35 94
e 35 97
e 35 98
e 35 101
e 35 104
e 35 105
e 35 106
e 35 110
e 35 111
e 35 112
e 35 113
e 35 114
e 35 116
e 35 120
e 35 123
e 35 126
e 35 127
e 36 37
e 36 41
e 36 42
e 36 45
e 36 46
e 36 48
e 36 49
e 36 52
e 36 53
e 36 55
e 36 56
e 36 58
e 36 59
e 36 60
e 36 64
e 36 65
e 36 67
e 36 70
e 36 73
e 36 74
e 36 75
e 36 77
e 36 79
e 36 80
e 36 81
e 36 83
e 36 84
e 36 87
e 36 88
e 36 89
e 36 90
e 36 91
e 36 93
e 36 94
e 36 95
e 36 100
e 36 102
e 36 103
e 36 105
e 36 106
e 36 107
e 36 108
e 36 110
e 36 116
e 36 117
e 36 119
e 36 120
e 36 121
e 36 123
e 36 124
e 36 126
e 37 38
e 37 40
e 37 42
e 37 43
e 37 44
e 37 46
e 37 47
e 37 48
e 37 49
e 37 51
e 37 53
e 37 54
e 37 55
e 37 57
e 37 58
e 37 59
e 37 61
e 37 62
e 37 63
e 37 65
e 37 67
e 37 70
e 37 71
e 37 72
e 37 73
e 37 74
e 37 75
e 37 77
e 37 78
e 37 79
e 37 83
e 37 84
e 37 91
e 37 92
e 37 93
e 37 94
e 37 95
e 37 96
e 37 97
e 37 98
e 37 101
e 37 102
e 37 103
e 37 104
e 37 105
e 37 106
e 37 107
e 37 108
e 37 109
e 37 110
e 37 112
e 37 115
e 37 116
e 37 119
e 37 122
e 37 123
e 37 124
e 37 125
e 37 127
e 38 39
e 38 42
e 38 44
e 38 45
e 38 46
e 38 47
e 38 48
e 38 49
e 38 50
e 38 51
e 38 54
e 38 58
e 38 60
e 38 63
e 38 64
e 38 65
e 38 67
e 38 68
e 38 70
e 38 72
e 38 73
e 38 74
e 38 77
e 38 78
e 38 79
e 38 81
e 38 82
e 38 83
e 38 86
e 38 87
e 38 89
e 38 90
e 38 91
e 38 93
e 38 94
e 38 95
e 38 97
e 38 110
e 38 112
e 38 115
e 38 116
e 38 121
e 38 122
e 38 124
e 38 125
e 38 126
e 39 40
e 39 41
e 39 44
e 39 47
e 39 50
e 39 51
e 39 52
e 39 53
e 39 55
e 39 57
e 39 58
e 39 59
e 39 62
e 39 63
e 39 64
e 39 65
e 39 67
e 39 69
e 39 71
e 39 73
e 39 74
e 39 77
e 39 78
e 39 81
e 39 83
e 39 84
e 39 87
e 39 89
e 39 90
e 39 91
e 39 92
e 39 93
e 39 96
e 39 98
e 39 99
e 39 100
e 39 101
e 39 102
e 39 104
e 39 106
e 39 107
e 39 111
e 39 113
e 39 114
e 39 116
e 39 118
e 39 119
e 39 121
e 39 122
e 39 125
e 39 126
e 40 41
e 40 43
e 40 45
e 40 47
e 40 48
e 40 49
e 40 50
e 40 53
e 40 54
e 40 56
e 40 59
e 40 60
e 40 61
e 40 62
e 40 63
e 40 65
e 40 66
e 40 69
e 40 70
e 40 71
e 40 74
e 40 76
e 40 78
e 40 80
e 40 81
e 40 84
e 40 85
e 40 86
e 40 88
e 40 90
e 40 91
e 40 92
e 40 94
e 40 95
e 40 96
e 40 97
e 40 99
e 40 103
e 40 106
e 40 107
e 40 109
e 40 110
e 40 111
e 40 115
e 40 116
e 40 117
e 40 121
e 40 122
e 40 123
e 40 125
e 41 42
e 41 44
e 41 45
e 41 46
e 41 47
e 41 49
e 41 50
e 41 51
e 41 52
e 41 55
e 41 57
e 41 58
e 41 59
e 41 60
e 41 61
e 41 64
e 41 66
e 41 72
e 41 73
e 41 74
e 41 75
e 41 76
e 41 77
e 41 79
e 41 83
e 41 85
e 41 86
e 41 87
e 41 88
e 41 90
e 41 92
e 41 93
e 41 94
e 41 97
e 41 98
e 41 99
e 41 100
e 41 101
e 41 103
e 41 105
e 41 106
e 41 107
e 41 110
e 41 111
e 41 112
e 41 113
e 41 115
e 41 116
e 41 117
e 41 118
e 41 120
e 41 121
e 41 125
e 41 126
e 42 45
e 42 46
e 42 48
e 42 49
e 42 50
e 42 51
e 42 52
e 42 53
e 42 54
e 42 55
e 42 59
e 42 60
e 42 61
e 42 65
e 42 66
e 42 67
e 42 71
e 42 72
e 42 73
e 42 74
e 42 76
e 42 77
e 42 81
e 42 82
e 42 83
e 42 84
e 42 86
e 42 88
e 42 90
e 42 91
e 42 94
e 42 95
e 42 96
e 42 97
e 42 99
e 42 100
e 42 101
e 42 102
e 42 105
e 42 109
e 42 111
e 42 112
e 42 113
e 42 114
e 42 116
e 42 117
e 42 118
e 42 119
e 42 120
e 42 121
e 42 122
e 42 123
e 42 124
e 42 125
e 42 127
e 43 44
e 43 45
e 43 47
e 43 48
e 43 50
e 43 51
e 43 52
e 43 56
e 43 58
e 43 60
e 43 61
e 43 62
e 43 63
e 43 64
e 43 65
e 43 66
e 43 67
e 43 69
e 43 71
e 43 73
e 43 74
e 43 75
e 43 77
e 43 79
e 43 80
e 43 82
e 43 85
e 43 88
e 43 89
e 43 90
e 43 93
e 43 99
e 43 100
e 43 102
e 43 106
e 43 107
e 43 110
e 43 111
e 43 116
e 43 121
e 43 122
e 43 123
e 43 124
e 43 125
e 43 127
e 44 46
e 44 47
e 44 48
e 44 49
e 44 50
e 44 53
e 44 54
e 44 56
e 44 58
e 44 59
e 44 61
e 44 62
e 44 63
e 44 67
e 44 68
e 44 69
e 44 70
e 44 72
e 44 74
e 44 75
e 44 76
e 44 78
e 44 80
e 44 81
e 44 84
e 44 85
e 44 87
e 44 88
e 44 93
e 44 95
e 44 96
e 44 97
e 44 99
e 44 103
e 44 105
e 44 109
e 44 110
e 44 111
e 44 113
e 44 114
e 44 115
e 44 116
e 44 118
e 44 121
e 44 122
e 44 123
e 44 124
e 44 125
e 44 126
e 44 127
e 45 47
e 45 48
e 45 49
e 45 53
e 45 55
e 45 57
e 45 58
e 45 59
e 45 60
e 45 61
e 45 62
e 45 63
e 45 64
e 45 65
e 45 66
e 45 67
e 45 68
e 45 69
e 45 70
e 45 71
e 45 72
e 45 73
e 45 74
e 45 75
e 45 76
e 45 85
e 45 86
e 45 87
e 45 88
e 45 91
e 45 92
e 45 93
e 45 95
e 45 97
e 45 98
e 45 100
e 45 101
e 45 103
e 45 104
e 45 106
e 45 108
e 45 109
e 45 110
e 45 112
e 45 113
e 45 114
e 45 118
e 45 120
e 45 121
e 45 122
e 45 124
e 45 125
e 45 126
e 46 48
e 46 51
e 46 53
e 46 54
e 46 55
e 46 56
e 46 58
e 46 59
e 46 61
e 46 63
e 46 64
e 46 66
e 46 69
e 46 70
e 46 71
e 46 73
e 46 75
e 46 77
e 46 80
e 46 83
e 46 84
e 46 85
e 46 86
e 46 87
e 46 88
e 46 91
e 46 92
e 46 93
e 46 97
e 46 98
e 46 100
e 46 101
e 46 102
e 46 105
e 46 106
e 46 107
e 46 109
e 46 110
e 46 111
e 46 112
e 46 113
e 46 114
e 46 115
e 46 117
e 46 118
e 46 119
e 46 123
e 46 124
e 46 127
e 47 48
e 47 49
e 47 50
e 47 51
e 47 54
e 47 55
e 47 58
e 47 59
e 47 61
e 47 62
e 47 63
e 47 64
e 47 65
e 47 66
e 47 67
e 47 68
e 47 69
e 47 74
e 47 77
e 47 79
e 47 83
e 47 85
e 47 87
e 47 88
e 47 89
e 47 96
e 47 97
e 47 99
e 47 100
e 47 101
e 47 103
e 47 104
e 47 105
e 47 106
e 47 107
e 47 110
e 47 111
e 47 114
e 47 116
e 47 118
e 47 120
e 47 122
e 47 123
e 47 124
e 48 51
e 48 52
e 48 54
e 48 55
e 48 56
e 48 58
e 48 61
e 48 62
e 48 64
e 48 65
e 48 70
e 48 74
e 48 77
e 48 78
e 48 80
e 48 81
e 48 82
e 48 85
e 48 86
e 48 88
e 48 90
e 48 91
e 48 92
e 48 94
e 48 96
e 48 97
e 48 99
e 48 100
e 48 101
e 48 103
e 48 104
e 48 108
e 48 109
e 48 110
e 48 111
e 48 112
e 48 113
e 48 114
e 48 115
e 48 117
e 48 118
e 48 119
e 48 120
e 48 121
e 48 122
e 48 123
e 48 124
e 48 126
e 48 127
e 49 50
e 49 52
e 49 53
e 49 55
e 49 56
e 49 57
e 49 59
e 49 61
e 49 64
e 49 65
e 49 68
e 49 69
e 49 70
e 49 71
e 49 72
e 49 73
e 49 75
e 49 76
e 49 78
e 49 79
e 49 82
e 49 83
e 49 84
e 49 88
e 49 92
e 49 94
e 49 95
e 49 96
e 49 97
e 49 98
e 49 102
e 49 105
e 49 110
e 49 111
e 49 112
e 49 113
e 49 117
e 49 118
e 49 119
e 49 120
e 49 121
e 49 122
e 49 124
e 49 126
e 50 51
e 50 53
e 50 57
e 50 58
e 50 59
e 50 60
e 50 62
e 50 63
e 50 66
e 50 67
e 50 68
e 50 69
e 50 71
e 50 76
e 50 79
e 50 81
e 50 83
e 50 84
e 50 85
e 50 88
e 50 92
e 50 93
e 50 95
e 50 97
e 50 98
e 50 99
e 50 100
e 50 101
e 50 102
e 50 104
e 50 105
e 50 106
e 50 107
e 50 108
e 50 109
e 50 112
e 50 114
e 50 115
e 50 116
e 50 118
e 50 120
e 50 121
e 50 125
e 50 126
e 51 52
e 51 53
e 51 54
e 51 55
e 51 56
e 51 57
e 51 59
e 51 60
e 51 69
e 51 72
e 51 73
e 51 76
e 51 77
e 51 80
e 51 82
e 51 84
e 51 86
e 51 88
e 51 89
e 51 91
e 51 92
e 51 94
e 51 96
e 51 97
e 51 99
e 51 100
e 51 102
e 51 103
e 51 104
e 51 105
e 51 106
e 51 111
e 51 114
e 51 116
e 51 117
e 51 118
e 51 119
e 51 120
e 51 123
e 51 124
e 51 125
e 51 127
e 52 53
e 52 54
e 52 55
e 52 57
e 52 58
e 52 60
e 52 61
e 52 62
e 52 64
e 52 66
e 52 67
e 52 68
e 52 69
e 52 70
e 52 72
e 52 75
e 52 76
e 52 79
e 52 80
e 52 81
e 52 84
e 52 85
e 52 86
e 52 88
e 52 91
e 52 93
e 52 94
e 52 95
e 52 96
e 52 98
e 52 99
e 52 101
e 52 102
e 52 103
e 52 105
e 52 108
e 52 110
e 52 112
e 52 114
e 52 116
e 52 118
e 52 119
e 52 120
e 52 123
e 52 124
e 52 125
e 52 127
e 53 55
e 53 57
e 53 61
e 53 62
e 53 63
e 53 64
e 53 65
e 53 66
e 53 67
e 53 68
e 53 69
e 53 70
e 53 72
e 53 73
e 53 75
e 53 76
e 53 78
e 53 79
e 53 81
e 53 82
e 53 83
e 53 84
e 53 85
e 53 86
e 53 87
e 53 89
e 53 90
e 53 92
e 53 93
e 53 94
e 53 96
e 53 97
e 53 99
e 53 102
e 53 104
e 53 105
e 53 107
e 53 108
e 53 109
e 53 110
e 53 112
e 53 113
e 53 116
e 53 117
e 53 118
e 53 122
e 53 123
e 53 125
e 53 127
e 54 56
e 54 57
e 54 58
e 54 59
e 54 63
e 54 66
e 54 67
e 54 68
e 54 71
e 54 74
e 54 75
e 54 77
e 54 79
e 54 82
e 54 84
e 54 87
e 54 90
e 54 93
e 54 95
e 54 97
e 54 98
e 54 99
e 54 100
e 54 102
e 54 104
e 54 105
e 54 106
e 54 109
e 54 110
e 54 111
e 54 112
e 54 113
e 54 114
e 54 115
e 54 116
e 54 117
e 54 118
e 54 122
e 54 123
e 54 124
e 54 126
e 55 57
e 55 59
e 55 61
e 55 62
e 55 63
e 55 67
e 55 69
e 55 71
e 55 74
e 55 75
e 55 76
e 55 77
e 55 79
e 55 80
e 55 82
e 55 83
e 55 85
e 55 86
e 55 88
e 55 92
e 55 95
e 55 96
e 55 98
e 55 100
e 55 103
e 55 104
e 55 106
e 55 107
e 55 108
e 55 109
e 55 110
e 55 111
e 55 112
e 55 113
e 55 115
e 55 116
e 55 118
e 55 119
e 55 120
e 55 122
e 55 123
e 55 124
e 55 125
e 55 126
e 56 57
e 56 58
e 56 59
e 56 61
e 56 62
e 56 66
e 56 69
e 56 72
e 56 74
e 56 75
e 56 76
e 56 78
e 56 79
e 56 84
e 56 85
e 56 86
e 56 90
e 56 92
e 56 93
e 56 94
e 56 96
e 56 97
e 56 99
e 56 104
e 56 105
e 56 106
e 56 107
e 56 108
e 56 110
e 56 112
e 56 114
e 56 116
e 56 118
e 56 120
e 56 122
e 56 124
e 56 126
e 56 127
e 57 59
e 57 60
e 57 64
e 57 65
e 57 67
e 57 68
e 57 71
e 57 73
e 57 74
e 57 75
e 57 78
e 57 81
e 57 86
e 57 87
e 57 88
e 57 91
e 57 93
e 57 96
e 57 98
e 57 99
e 57 100
e 57 101
e 57 102
e 57 103
e 57 104
e 57 105
e 57 109
e 57 110
e 57 111
e 57 114
e 57 116
e 57 124
e 57 125
e 57 126
e 58 59
e 58 60
e 58 62
e 58 63
e 58 67
e 58 69
e 58 71
e 58 72
e 58 73
e 58 74
e 58 75
e 58 77
e 58 78
e 58 83
e 58 84
e 58 85
e 58 86
e 58 88
e 58 91
e 58 92
e 58 93
e 58 95
e 58 97
e 58 100
e 58 105
e 58 107
e 58 109
e 58 111
e 58 112
e 58 114
e 58 116
e 58 118
e 58 120
e 58 121
e 58 122
e 58 123
e 58 126
e 59 60
e 59 61
e 59 63
e 59 64
e 59 65
e 59 66
e 59 68
e 59 69
e 59 70
e 59 71
e 59 73
e 59 75
e 59 76
e 59 77
e 59 78
e 59 80
e 59 84
e 59 85
e 59 87
e 59 90
e 59 93
e 59 96
e 59 97
e 59 101
e 59 102
e 59 106
e 59 109
e 59 111
e 59 112
e 59 113
e 59 114
e 59 116
e 59 118
e 59 120
e 59 121
e 59 125
e 59 127
e 60 61
e 60 62
e 60 63
e 60 65
e 60 67
e 60 68
e 60 69
e 60 75
e 60 76
e 60 77
e 60 79
e 60 81
e 60 83
e 60 84
e 60 85
e 60 86
e 60 87
e 60 88
e 60 89
e 60 91
e 60 92
e 60 93
e 60 95
e 60 96
e 60 99
e 60 100
e 60 102
e 60 103
e 60 104
e 60 105
e 60 106
e 60 107
e 60 108
e 60 109
e 60 110
e 60 111
e 60 112
e 60 114
e 60 117
e 60 123
e 60 124
e 60 125
e 60 126
e 60 127
e 61 64
e 61 65
e 61 66
e 61 67
e 61 68
e 61 69
e 61 70
e 61 72
e 61 73
e 61 75
e 61 78
e 61 80
e 61 81
e 61 83
e 61 84
e 61 90
e 61 93
e 61 96
e 61 97
e 61 99
e 61 100
e 61 101
e 61 102
e 61 104
e 61 107
e 61 109
e 61 112
e 61 114
e 61 115
e 61 121
e 61 122
e 61 123
e 61 124
e 61 125
e 61 127
e 62 63
e 62 64
e 62 65
e 62 66
e 62 67
e 62 69
e 62 70
e 62 76
e 62 77
e 62 80
e 62 83
e 62 84
e 62 89
e 62 90
e 62 93
e 62 94
e 62 95
e 62 96
e 62 97
e 62 100
e 62 101
e 62 104
e 62 106
e 62 109
e 62 110
e 62 112
e 62 115
e 62 116
e 62 118
e 62 120
e 62 122
e 62 123
e 62 124
e 62 125
e 62 126
e 62 127
e 63 64
e 63 65
e 63 66
e 63 67
e 63 68
e 63 69
e 63 73
e 63 74
e 63 75
e 63 76
e 63 77
e 63 78
e 63 80
e 63 81
e 63 82
e 63 84
e 63 85
e 63 86
e 63 87
e 63 88
e 63 89
e 63 91
e 63 92
e 63 93
e 63 95
e 63 96
e 63 98
e 63 99
e 63 102
e 63 105
e 63 106
e 63 107
e 63 108
e 63 109
e 63 110
e 63 112
e 63 113
e 63 116
e 63 117
e 63 118
e 63 119
e 63 122
e 63 123
e 63 125
e 64 65
e 64 66
e 64 67
e 64 68
e 64 69
e 64 70
e 64 73
e 64 74
e 64 76
e 64 77
e 64 80
e 64 83
e 64 84
e 64 87
e 64 89
e 64 91
e 64 93
e 64 95
e 64 97
e 64 98
e 64 99
e 64 100
e 64 103
e 64 107
e 64 108
e 64 109
e 64 110
e 64 112
e 64 113
e 64 114
e 64 116
e 64 117
e 64 118
e 64 120
e 64 121
e 64 122
e 64 123
e 64 124
e 64 126
e 65 71
e 65 72
e 65 73
e 65 74
e 65 76
e 65 77
e 65 78
e 65 81
e 65 85
e 65 86
e 65 87
e 65 88
e 65 90
e 65 91
e 65 92
e 65 93
e 65 94
e 65 95
e 65 97
e 65 98
e 65 99
e 65 100
e 65 102
e 65 105
e 65 106
e 65 107
e 65 108
e 65 109
e 65 111
e 65 112
e 65 113
e 65 116
e 65 117
e 65 119
e 65 121
e 65 122
e 65 124
e 65 127
e 66 67
e 66 70
e 66 72
e 66 73
e 66 74
e 66 75
e 66 76
e 66 77
e 66 78
e 66 79
e 66 82
e 66 83
e 66 85
e 66 86
e 66 87
e 66 88
e 66 89
e 66 93
e 66 97
e 66 98
e 66 99
e 66 100
e 66 101
e 66 103
e 66 109
e 66 110
e 66 114
e 66 115
e 66 118
e 66 120
e 66 124
e 66 125
e 66 126
e 66 127
e 67 68
e 67 70
e 67 71
e 67 72
e 67 73
e 67 77
e 67 78
e 67 79
e 67 81
e 67 82
e 67 84
e 67 86
e 67 88
e 67 89
e 67 91
e 67 93
e 67 94
e 67 95
e 67 97
e 67 99
e 67 100
e 67 103
e 67 105
e 67 106
e 67 107
e 67 108
e 67 109
e 67 112
e 67 113
e 67 114
e 67 116
e 67 118
e 67 119
e 67 121
e 67 122
e 67 123
e 68 69
e 68 71
e 68 72
e 68 73
e 68 75
e 68 76
e 68 80
e 68 81
e 68 84
e 68 86
e 68 88
e 68 90
e 68 91
e 68 93
e 68 94
e 68 96
e 68 97
e 68 98
e 68 99
e 68 101
e 68 102
e 68 103
e 68 104
e 68 108
e 68 109
e 68 115
e 68 120
e 68 121
e 68 122
e 68 124
e 68 125
e 68 127
e 69 72
e 69 73
e 69 74
e 69 78
e 69 79
e 69 81
e 69 83
e 69 88
e 69 91
e 69 92
e 69 94
e 69 95
e 69 99
e 69 102
e 69 103
e 69 105
e 69 107
e 69 108
e 69 110
e 69 111
e 69 113
e 69 114
e 69 115
e 69 116
e 69 117
e 69 118
e 69 120
e 69 121
e 69 126
e 69 127
e 70 74
e 70 76
e 70 77
e 70 78
e 70 79
e 70 80
e 70 81
e 70 84
e 70 89
e 70 90
e 70 91
e 70 94
e 70 97
e 70 98
e 70 99
e 70 100
e 70 101
e 70 102
e 70 103
e 70 106
e 70 107
e 70 109
e 70 110
e 70 111
e 70 113
e 70 116
e 70 120
e 70 122
e 70 123
e 70 124
e 70 125
e 70 126
e 71 72
e 71 73
e 71 74
e 71 77
e 71 78
e 71 80
e 71 81
e 71 82
e 71 83
e 71 84
e 71 89
e 71 91
e 71 92
e 71 93
e 71 97
e 71 98
e 71 99
e 71 100
e 71 102
e 71 103
e 71 104
e 71 105
e 71 108
e 71 110
e 71 111
e 71 114
e 71 116
e 71 119
e 71 122
e 71 125
e 71 126
e 72 73
e 72 74
e 72 75
e 72 77
e 72 78
e 72 85
e 72 86
e 72 87
e 72 91
e 72 93
e 72 95
e 72 96
e 72 98
e 72 100
e 72 101
e 72 102
e 72 103
e 72 105
e 72 107
e 72 108
e 72 109
e 72 110
e 72 111
e 72 113
e 72 116
e 72 117
e 72 118
e 72 119
e 72 121
e 72 122
e 72 123
e 72 124
e 72 125
e 72 126
e 72 127
e 73 74
e 73 76
e 73 77
e 73 78
e 73 79
e 73 80
e 73 82
e 73 83
e 73 84
e 73 85
e 73 86
e 73 87
e 73 91
e 73 93
e 73 94
e 73 96
e 73 98
e 73 99
e 73 100
e 73 104
e 73 105
e 73 106
e 73 109
e 73 112
e 73 113
e 73 114
e 73 115
e 73 117
e 73 119
e 73 120
e 73 122
e 73 124
e 73 125
e 74 75
e 74 76
e 74 77
e 74 79
e 74 80
e 74 81
e 74 82
e 74 84
e 74 90
e 74 92
e 74 93
e 74 94
e 74 96
e 74 97
e 74 102
e 74 103
e 74 105
e 74 106
e 74 108
e 74 109
e 74 110
e 74 113
e 74 115
e 74 116
e 74 117
e 74 121
e 74 122
e 74 124
e 74 125
e 74 126
e 75 76
e 75 77
e 75 80
e 75 81
e 75 82
e 75 83
e 75 85
e 75 90
e 75 91
e 75 92
e 75 95
e 75 99
e 75 100
e 75 102
e 75 103
e 75 104
e 75 105
e 75 106
e 75 108
e 75 109
e 75 111
e 75 112
e 75 113
e 75 114
e 75 115
e 75 119
e 75 120
e 75 121
e 75 122
e 75 126
e 75 127
e 76 78
e 76 81
e 76 82
e 76 83
e 76 84
e 76 85
e 76 88
e 76 89
e 76 91
e 76 93
e 76 94
e 76 96
e 76 97
e 76 98
e 76 99
e 76 100
e 76 104
e 76 108
e 76 111
e 76 112
e 76 113
e 76 115
e 76 116
e 76 117
e 76 119
e 76 123
e 76 125
e 77 79
e 77 80
e 77 81
e 77 83
e 77 85
e 77 86
e 77 89
e 77 91
e 77 94
e 77 95
e 77 97
e 77 99
e 77 100
e 77 102
e 77 106
e 77 107
e 77 111
e 77 112
e 77 114
e 77 117
e 77 119
e 77 120
e 77 121
e 77 123
e 77 124
e 77 125
e 78 79
e 78 80
e 78 82
e 78 83
e 78 84
e 78 86
e 78 87
e 78 88
e 78 90
e 78 91
e 78 94
e 78 95
e 78 96
e 78 99
e 78 100
e 78 101
e 78 104
e 78 105
e 78 106
e 78 108
e 78 109
e 78 111
e 78 114
e 78 119
e 78 121
e 78 122
e 78 123
e 78 124
e 78 126
e 78 127
e 79 81
e 79 83
e 79 84
e 79 85
e 79 86
e 79 88
e 79 91
e 79 93
e 79 94
e 79 95
e 79 99
e 79 100
e 79 104
e 79 105
e 79 106
e 79 107
e 79 108
e 79 109
e 79 110
e 79 114
e 79 115
e 79 116
e 79 118
e 79 120
e 79 125
e 79 127
e 80 81
e 80 83
e 80 84
e 80 86
e 80 87
e 80 90
e 80 91
e 80 92
e 80 94
e 80 98
e 80 100
e 80 101
e 80 102
e 80 107
e 80 108
e 80 109
e 80 110
e 80 111
e 80 113
e 80 116
e 80 118
e 80 122
e 80 124
e 80 125
e 80 127
e 81 82
e 81 83
e 81 84
e 81 87
e 81 88
e 81 90
e 81 93
e 81 95
e 81 96
e 81 97
e 81 101
e 81 102
e 81 104
e 81 105
e 81 107
e 81 108
e 81 111
e 81 113
e 81 117
e 81 118
e 81 120
e 81 123
e 81 124
e 81 126
e 82 83
e 82 84
e 82 85
e 82 86
e 82 89
e 82 91
e 82 93
e 82 95
e 82 98
e 82 99
e 82 100
e 82 101
e 82 105
e 82 106
e 82 107
e 82 108
e 82 110
e 82 111
e 82 112
e 82 113
e 82 115
e 82 116
e 82 120
e 83 84
e 83 85
e 83 86
e 83 88
e 83 89
e 83 90
e 83 91
e 83 92
e 83 93
e 83 94
e 83 95
e 83 97
e 83 99
e 83 100
e 83 101
e 83 103
e 83 108
e 83 112
e 83 113
e 83 114
e 83 115
e 83 116
e 83 117
e 83 118
e 83 119
e 83 120
e 83 121
e 83 122
e 83 126
e 84 88
e 84 89
e 84 90
e 84 93
e 84 94
e 84 95
e 84 96
e 84 101
e 84 104
e 84 105
e 84 106
e 84 108
e 84 109
e 84 111
e 84 112
e 84 113
e 84 115
e 84 116
e 84 117
e 84 118
e 84 120
e 84 121
e 84 123
e 84 126
e 84 127
e 85 86
e 85 87
e 85 93
e 85 94
e 85 95
e 85 96
e 85 97
e 85 99
e 85 100
e 85 101
e 85 102
e 85 103
e 85 104
e 85 106
e 85 108
e 85 109
e 85 110
e 85 112
e 85 113
e 85 114
e 85 116
e 85 117
e 85 120
e 85 121
e 85 123
e 85 124
e 85 125
e 86 87
e 86 89
e 86 91
e 86 92
e 86 94
e 86 95
e 86 100
e 86 101
e 86 105
e 86 107
e 86 115
e 86 116
e 86 118
e 86 119
e 86 120
e 86 125
e 86 127
e 87 92
e 87 95
e 87 97
e 87 98
e 87 100
e 87 101
e 87 103
e 87 105
e 87 106
e 87 107
e 87 108
e 87 110
e 87 111
e 87 113
e 87 114
e 87 115
e 87 117
e 87 118
e 87 119
e 87 120
e 87 121
e 87 122
e 87 123
e 87 125
e 87 126
e 87 127
e 88 93
e 88 96
e 88 97
e 88 99
e 88 100
e 88 101
e 88 102
e 88 103
e 88 105
e 88 106
e 88 107
e 88 108
e 88 109
e 88 110
e 88 111
e 88 112
e 88 115
e 88 117
e 88 123
e 88 124
e 89 91
e 89 92
e 89 94
e 89 96
e 89 99
e 89 102
e 89 109
e 89 111
e 89 112
e 89 113
e 89 115
e 89 116
e 89 117
e 89 120
e 89 121
e 89 122
e 89 123
e 89 124
e 89 125
e 90 91
e 90 92
e 90 99
e 90 100
e 90 101
e 90 102
e 90 103
e 90 104
e 90 106
e 90 107
e 90 108
e 90 111
e 90 113
e 90 114
e 90 115
e 90 116
e 90 117
e 90 118
e 90 119
e 90 120
e 90 122
e 90 123
e 90 124
e 90 125
e 90 126
e 90 127
e 91 92
e 91 96
e 91 97
e 91 98
e 91 99
e 91 101
e 91 104
e 91 108
e 91 109
e 91 111
e 91 112
e 91 113
e 91 116
e 91 117
e 91 119
e 91 120
e 91 121
e 91 122
e 91 124
e 91 125
e 91 127
e 92 96
e 92 98
e 92 99
e 92 100
e 92 101
e 92 102
e 92 103
e 92 104
e 92 106
e 92 109
e 92 111
e 92 112
e 92 113
e 92 115
e 92 116
e 92 117
e 92 118
e 92 120
e 92 123
e 92 124
e 92 125
e 92 126
e 92 127
e 93 94
e 93 95
e 93 96
e 93 97
e 93 99
e 93 102
e 93 103
e 93 104
e 93 107
e 93 109
e 93 112
e 93 113
e 93 114
e 93 115
e 93 117
e 93 118
e 93 123
e 93 126
e 93 127
e 94 97
e 94 101
e 94 104
e 94 105
e 94 106
e 94 111
e 94 112
e 94 113
e 94 114
e 94 116
e 94 120
e 94 121
e 94 122
e 94 124
e 94 125
e 94 127
e 95 96
e 95 97
e 95 100
e 95 102
e 95 103
e 95 104
e 95 105
e 95 106
e 95 110
e 95 112
e 95 113
e 95 114
e 95 115
e 95 116
e 95 117
e 95 118
e 95 120
e 95 123
e 95 124
e 95 126
e 96 97
e 96 100
e 96 101
e 96 102
e 96 104
e 96 105
e 96 106
e 96 108
e 96 110
e 96 113
e 96 115
e 96 116
e 96 117
e 96 118
e 96 120
e 96 121
e 96 122
e 96 123
e 96 124
e 96 126
e 96 127
e 97 98
e 97 99
e 97 100
e 97 102
e 97 104
e 97 105
e 97 106
e 97 112
e 97 113
e 97 114
e 97 117
e 97 118
e 97 119
e 97 121
e 97 122
e 97 123
e 97 124
e 97 126
e 97 127
e 98 99
e 98 101
e 98 104
e 98 105
e 98 106
e 98 108
e 98 109
e 98 110
e 98 111
e 98 114
e 98 116
e 98 118
e 98 120
e 98 122
e 98 123
e 98 124
e 98 126
e 98 127
e 99 100
e 99 102
e 99 103
e 99 106
e 99 109
e 99 110
e 99 113
e 99 114
e 99 115
e 99 116
e 99 117
e 99 118
e 99 121
e 99 122
e 99 123
e 99 125
e 99 126
e 100 104
e 100 106
e 100 107
e 100 109
e 100 110
e 100 113
e 100 114
e 100 115
e 100 117
e 100 121
e 100 125
e 100 126
e 100 127
e 101 102
e 101 103
e 101 105
e 101 108
e 101 111
e 101 113
e 101 115
e 101 119
e 101 121
e 101 122
e 101 123
e 101 124
e 101 125
e 101 126
e 101 127
e 102 103
e 102 105
e 102 106
e 102 108
e 102 115
e 102 116
e 102 117
e 102 118
e 102 120
e 102 121
e 102 122
e 102 123
e 102 124
e 102 125
e 102 126
e 102 127
e 103 104
e 103 107
e 103 108
e 103 109
e 103 111
e 103 112
e 103 114
e 103 116
e 103 117
e 103 118
e 103 119
e 103 121
e 103 125
e 103 126
e 104 105
e 104 109
e 104 110
e 104 113
e 104 114
e 104 115
e 104 122
e 104 123
e 104 124
e 104 125
e 104 126
e 105 106
e 105 107
e 105 109
e 105 110
e 105 111
e 105 113
e 105 115
e 105 116
e 105 118
e 105 119
e 105 121
e 105 124
e 105 125
e 105 126
e 106 108
e 106 109
e 106 110
e 106 111
e 106 113
e 106 117
e 106 118
e 106 119
e 106 121
e 106 125
e 106 126
e 106 127
e 107 112
e 107 113
e 107 117
e 107 118
e 107 119
e 107 121
e 107 122
e 107 123
e 107 125
e 107 127
e 108 109
e 108 110
e 108 112
e 108 113
e 108 114
e 108 115
e 108 117
e 108 118
e 108 121
e 108 122
e 108 123
e 108 125
e 108 126
e 109 110
e 109 111
e 109 112
e 109 114
e 109 116
e 109 120
e 109 121
e 109 123
e 109 124
e 109 126
e 109 127
e 110 112
e 110 113
e 110 115
e 110 116
e 110 119
e 110 120
e 110 121
e 110 124
e 110 125
e 111 112
e 111 113
e 111 114
e 111 115
e 111 117
e 111 119
e 111 120
e 111 121
e 111 122
e 111 123
e 111 124
e 111 125
e 112 113
e 112 114
e 112 115
e 112 116
e 112 120
e 112 123
e 112 124
e 112 125
e 112 126
e 112 127
e 113 115
e 113 119
e 113 122
e 113 124
e 113 125
e 114 119
e 114 120
e 114 121
e 114 122
e 114 124
e 114 125
e 114 126
e 114 127
e 115 116
e 115 118
e 115 119
e 115 120
e 115 122
e 115 124
e 115 125
e 115 126
e 115 127
e 116 117
e 116 118
e 116 119
e 116 120
e 116 125
e 116 126
e 116 127
e 117 119
e 117 120
e 117 122
e 117 123
e 117 124
e 117 125
e 117 127
e 118 119
e 118 121
e 118 122
e 118 124
e 118 125
e 118 127
e 119 121
e 119 122
e 119 123
e 119 124
e 119 125
e 119 126
e 119 127
e 120 121
e 120 122
e 120 124
e 120 126
e 120 127
e 121 125
e 121 126
e 122 123
e 122 124
e 122 125
e 122 126
e 123 124
e 123 125
e 123 126
e 123 127
e 124 125
e 125 126
e 125 127
e 126 127
